c --- [ banner ] -------------------------------------------------------------
c 
c CaDiCaL Radically Simplified CDCL SAT Solver
c Copyright (c) 2016-2021 A. Biere, M. Fleury, N. Froleyks
c 
c Version 1.5.2 9c38a080b32c28d805e8e6ca21849856b0cda605
c g++ (Ubuntu 7.5.0-3ubuntu1~18.04) 7.5.0 -Wall -Wextra -O3 -DNDEBUG
c Wed Feb 16 23:15:36 EST 2022 Linux fac-vanhoeve01 5.4.0-99-generic x86_64
c 
c --- [ limit ] --------------------------------------------------------------
c 
c setting time limit to 600 seconds real time (due to '-t 600')
c setting conflict limit to 1000000000 conflicts (due to '1000000000')
c 
c --- [ parsing input ] ------------------------------------------------------
c 
c reading DIMACS file from 'ddfwcnfs/le450_25c.col_25.cnf'
c opening file to read 'ddfwcnfs/le450_25c.col_25.cnf'
c found 'p cnf 11250 382500' header
c parsed 382500 clauses in 0.19 seconds process time
c closing file 'ddfwcnfs/le450_25c.col_25.cnf'
c after reading 5398190 bytes 5.1 MB
c 
c --- [ options ] ------------------------------------------------------------
c 
c all options are set to their default value
c 
c --- [ solving ] ------------------------------------------------------------
c 
c time measured in process time since initialization
c 
c  seconds  reductions  redundant  irredundant
c         MB    restarts       trail       variables
c          level   conflicts       glue         remaining
c 
c *  0.19 36  0 0   0    0    0  0% 0 381875 10625 94%
c {  0.19 37  0 0   0    0    0  0% 0 381875 10625 94%
c -  0.26 37 24 1   0  301  152 18% 21 381875 10625 94%
c }  0.30 37 24 1   0 1000  570 18% 21 381875 10625 94%
c [  0.30 37  0 1   0 1000  570  0% 0 381875 10625 94%
c O  0.30 37 76 1   0 1003  573 38% 25 381875 10625 94%
c -  0.46 49 26 2   0 1251  685 21% 22 381875 10625 94%
c -  0.63 49 26 3   1 2675 1321 21% 23 381875 10625 94%
c ]  0.65 49 27 3   1 3000 1595 21% 23 381875 10625 94%
c {  0.65 49 24 3   1 3000 1595 18% 21 381875 10625 94%
c F  0.65 49 24 3   1 3004 1599 18% 21 381875 10625 94%
c -  0.82 49 25 4   1 4574 1675 20% 21 381875 10625 94%
c #  1.14 48 25 4  12 6008 2535 21% 21 381875 10625 94%
c -  1.28 48 28 5  12 6946 2025 21% 21 381875 10625 94%
c }  1.29 48 28 5  12 7000 2067 21% 21 381875 10625 94%
c [  1.29 48 27 5  12 7000 2067 21% 23 381875 10625 94%
c -  1.54 49 33 6  14 9794 2629 26% 27 381875 10625 94%
c I  1.56 49 33 6  14 10012 2794 26% 27 381875 10625 94%
c s  1.68 57 99 6  15 10337 3007 29% 30 381875 10625 94%
c e  2.39 58 99 6  15 10337   49 29% 30 260571 8419 75%
c 
c  seconds  reductions   redundant   irredundant
c         MB    restarts        trail       variables
c          level    conflicts       glue         remaining
c 
c s  2.55 60 99 6  15 10337   49 29% 30 260571 8419 75%
c ^  2.58 60 99 6  15 10337   49 29% 30 260571 8419 75%
c -  3.25 59 103 7  16 13120 2623 71% 44 260571 8419 75%
c ]  3.42 59 102 7  17 15001 4150 66% 47 260571 8419 75%
c {  3.42 59 28 7  17 15001 4150 29% 21 260571 8419 75%
c B  3.76 59 29 7  21 15013 4162 29% 21 260571 8419 75%
c -  4.02 66 33 8 228 16518 3240 29% 23 260571 8419 75%
c -  4.29 66 29 9 230 20341 3055 26% 23 260571 8419 75%
c W  4.51 66 30 9 272 21014 3410 27% 23 260571 8419 75%
c -  4.91 66 31 10 405 24588 3496 26% 24 260571 8419 75%
c F  5.10 66 30 10 444 28015 5471 26% 23 260571 8419 75%
c -  5.26 73 30 11 445 29260 3897 25% 23 260571 8419 75%
c s  5.66 73 29 11 445 30147 3847 25% 23 260571 8419 75%
c s  6.16 73 29 11 445 30147 3672 25% 23 260571 8419 75%
c ^  6.19 73 29 11 445 30147 3672 25% 23 260571 8419 75%
c }  6.25 73 29 11 445 31003 4216 25% 23 260571 8419 75%
c [  6.25 73 102 11 445 31003 4216 66% 47 260571 8419 75%
c -  6.56 73 83 12 446 34358 4235 48% 41 260571 8419 75%
c B  6.68 73 76 12 448 36016 5282 44% 39 260571 8419 75%
c -  7.32 73 144 13 451 39880 5876 51% 49 260571 8419 75%
c 
c  seconds   reductions     redundant   irredundant
c         MB      restarts         trail       variables
c           level     conflicts        glue         remaining
c 
c W  8.88 73 141 13 452 45020 10639 59% 60 260571 8419 75%
c -  9.19 60 140 14 452 45829 7136 60% 61 260571 8419 75%
c - 11.54 60 132 15 453 52203 8341 65% 67 260571 8419 75%
c O 12.39 60 129 15 454 55021 10904 67% 69 260571 8419 75%
c - 12.75 59 118 16 457 59000 8579 62% 64 260571 8419 75%
c s 12.88 59 116 16 458 59861 8818 61% 64 260571 8419 75%
c w 13.05 59 116 16 458 59861 8816 61% 64 260571 8419 75%
c s 13.48 59 116 16 458 59861 8729 61% 64 260571 8419 75%
c ^ 13.51 59 116 16 458 59861 8729 61% 64 260571 8419 75%
c ] 13.72 59 108 16 460 63003 11164 58% 60 260571 8419 75%
c { 13.72 59 29 16 460 63003 11164 25% 23 260571 8419 75%
c B 13.90 59 29 16 486 66022 12921 25% 23 260571 8419 75%
c - 14.00 68 29 17 535 66221 9394 25% 23 260571 8419 75%
c - 14.48 68 28 18 606 73869 6801 24% 23 260571 8419 75%
c W 15.40 68 28 18 707 78023 9438 23% 23 260571 8419 75%
c - 15.92 68 29 19 878 81939 6930 24% 23 260571 8419 75%
c - 16.49 74 28 20 895 90435 8146 23% 23 260571 8419 75%
c # 16.53 74 28 20 895 91025 8519 23% 23 260571 8419 75%
c - 17.13 74 27 21 904 99355 9097 22% 23 260571 8419 75%
c s 17.20 74 27 21 904 99478 8700 22% 23 260571 8419 75%
c 
c  seconds  reductions    redundant   irredundant
c         MB     restarts        trail       variables
c          level     conflicts       glue         remaining
c 
c w 17.37 74 27 21 904 99478 8691 22% 23 260571 8419 75%
c s 17.75 74 27 21 904 99478 8536 22% 23 260571 8419 75%
c ^ 17.77 74 27 21 904 99478 8536 22% 23 260571 8419 75%
c B 18.50 74 27 21 906 105026 12283 22% 22 260571 8419 75%
c - 18.79 74 27 22 958 108702 9468 22% 22 260571 8419 75%
c - 19.38 74 26 23 998 118471 7985 21% 22 260571 8419 75%
c W 19.98 74 26 23 1006 120027 8848 21% 22 260571 8419 75%
c } 20.37 74 26 23 1021 127004 12834 21% 22 260571 8419 75%
c [ 20.37 74 108 23 1021 127004 12834 58% 60 260571 8419 75%
c - 20.55 74 105 24 1021 128666 8029 56% 59 260571 8419 75%
c B 20.96 74 91 24 1026 136028 12783 49% 52 260571 8419 75%
c - 21.23 74 86 25 1028 139286 9345 47% 50 260571 8419 75%
c s 22.16 74 75 25 1029 148998 15684 41% 45 260571 8419 75%
c e 22.70 74 75 25 1029 148998 15683 41% 45 260579 8418 75%
c s 22.71 74 75 25 1029 148998 15585 41% 45 260579 8418 75%
c ^ 22.75 74 75 25 1029 148998 15585 41% 45 260579 8418 75%
c - 22.92 74 74 26 1029 150331 10507 40% 45 260579 8418 75%
c W 23.65 74 72 26 1030 153030 12293 39% 44 260579 8418 75%
c - 26.07 74 223 27 1030 161800 13476 44% 60 260579 8418 75%
c I 29.23 74 302 27 1033 171031 22146 49% 76 260579 8418 75%
c 
c  seconds   reductions       redundant   irredundant
c         MB      restarts           trail       variables
c           level      conflicts         glue         remaining
c 
c - 30.05 67 317 28 1035 173693 15941 50% 80 260579 8418 75%
c - 34.64 66 302 29 1042 186012 15527 55% 93 260579 8418 75%
c B 35.22 66 295 29 1044 190033 18722 56% 92 260579 8418 75%
c - 37.40 62 278 30 1045 198758 15156 58% 93 260579 8418 75%
c s 41.05 62 262 30 1051 208424 23755 61% 96 260579 8418 75%
c e 41.70 62 262 30 1051 208424 23753 61% 96 260589 8417 75%
c s 41.77 62 262 30 1051 208424 23724 61% 96 260589 8417 75%
c W 43.35 62 259 30 1052 210035 25051 61% 96 260589 8417 75%
c - 43.92 78 256 31 1052 211929 16992 62% 96 260589 8417 75%
c - 49.37 93 236 32 1059 225522 17080 64% 96 260589 8417 75%
c O 51.34 93 227 32 1060 231036 21826 65% 96 260589 8417 75%
c - 52.03 93 208 33 1061 239540 16702 62% 90 260589 8417 75%
c B 53.04 93 183 33 1062 253037 27061 57% 82 260589 8417 75%
c - 53.20 93 186 34 1062 253984 16758 58% 81 260589 8417 75%
c ] 53.27 93 189 34 1062 255004 17584 58% 81 260589 8417 75%
c { 53.27 93 26 34 1062 255004 17584 21% 22 260589 8417 75%
c - 54.53 93 28 35 1796 268851 15167 22% 23 260589 8417 75%
c F 55.32 93 27 35 1823 276038 19675 21% 22 260589 8417 75%
c s 55.65 93 27 35 1825 277758 16858 21% 22 260589 8417 75%
c s 56.13 93 27 35 1825 277758 15150 21% 22 260589 8417 75%
c 
c  seconds  reductions       redundant   irredundant
c         MB     restarts           trail       variables
c          level      conflicts         glue         remaining
c 
c - 56.68 93 27 36 1832 284144 14019 20% 22 260589 8417 75%
c - 57.82 93 27 37 1867 299861 14514 19% 22 260589 8417 75%
c B 57.83 93 27 37 1867 300039 14608 19% 22 260589 8417 75%
c - 59.24 93 27 38 2459 316002 13620 20% 22 260589 8417 75%
c W 61.06 93 27 38 2568 325041 18392 20% 22 260589 8417 75%
c - 62.16 58 27 39 2591 332568 12471 20% 22 260589 8417 75%
c - 63.35 67 26 40 2739 349560 12870 21% 22 260589 8417 75%
c # 63.45 67 26 40 2752 351045 13703 21% 22 260589 8417 75%
c - 64.68 76 26 41 3094 366977 13669 21% 22 260589 8417 75%
c B 65.47 76 26 41 3100 378046 21157 21% 22 260589 8417 75%
c - 66.26 76 26 42 3542 384819 15302 21% 22 260589 8417 75%
c - 68.44 76 27 43 4063 403085 14429 21% 23 260589 8417 75%
c W 70.46 76 27 43 4068 406048 16094 21% 23 260589 8417 75%
c - 71.70 76 27 44 4265 421776 15188 21% 23 260589 8417 75%
c F 72.58 76 26 44 4379 435050 22736 21% 22 260589 8417 75%
c - 73.06 76 26 45 4386 440895 15623 21% 22 260589 8417 75%
c - 75.01 77 26 46 4435 460435 16983 20% 22 260589 8417 75%
c B 75.38 77 26 46 4436 465051 19862 20% 22 260589 8417 75%
c - 76.45 77 26 47 4744 480401 18362 20% 22 260589 8417 75%
c W 79.16 77 26 47 4806 496054 27508 20% 22 260589 8417 75%
c 
c  seconds  reductions       redundant   irredundant
c         MB     restarts           trail       variables
c          level      conflicts         glue         remaining
c 
c - 79.58 77 25 48 4844 500793 16831 20% 22 260589 8417 75%
c } 80.18 77 25 48 4886 511005 22690 20% 21 260589 8417 75%
c [ 80.18 77 189 48 4886 511005 22690 58% 81 260589 8417 75%
c - 80.90 77 170 49 4886 521607 17821 53% 74 260589 8417 75%
c W 83.87 77 159 49 4886 528055 21661 50% 70 260589 8417 75%
c - 85.02 77 139 50 4889 542847 19157 45% 63 260589 8417 75%
c I 86.58 77 118 50 4900 561056 30959 40% 56 260589 8417 75%
c - 88.08 84 237 51 4900 564512 21334 41% 69 260589 8417 75%
c - 97.29 120 321 52 4909 586600 26452 47% 115 260589 8417 75%
c B 100.36 120 310 52 4915 595059 33920 49% 117 260589 8417 75%
c - 107.17 84 288 53 4917 609115 27634 53% 117 260589 8417 75%
c W 118.93 84 259 53 4923 630060 47232 58% 116 260589 8417 75%
c - 119.61 107 270 54 4924 632053 29843 58% 117 260589 8417 75%
c - 122.48 84 231 55 4932 655416 26252 55% 105 260589 8417 75%
c O 123.39 84 213 55 4939 666062 34056 52% 98 260589 8417 75%
c - 124.42 84 190 56 4946 679205 24104 48% 89 260589 8417 75%
c s 124.72 84 190 56 4946 679205 21477 48% 89 260589 8417 75%
c w 125.34 84 190 56 4946 679205 21466 48% 89 260589 8417 75%
c B 127.91 84 158 56 4948 703064 38038 43% 77 260589 8417 75%
c - 128.12 84 161 57 4948 703418 28462 44% 77 260589 8417 75%
c 
c  seconds     reductions       redundant   irredundant
c           MB      restarts           trail       variables
c             level      conflicts         glue         remaining
c 
c - 136.91 109 175 58 4949 728057 30399 51% 86 260589 8417 75%
c W 145.84 109 172 58 4950 741065 42734 54% 90 260589 8417 75%
c - 150.75 84 171 59 4950 753120 33108 56% 93 260589 8417 75%
c - 162.34 102 165 60 4950 778608 33016 61% 98 260589 8417 75%
c I 163.06 102 165 60 4950 780068 34370 61% 98 260589 8417 75%
c - 174.06 145 401 61 4950 804520 33744 63% 142 260589 8417 75%
c B 179.79 145 393 61 4959 820070 47809 64% 148 260589 8417 75%
c - 184.11 103 375 62 4965 830856 34325 65% 148 260589 8417 75%
c - 199.82 130 331 63 4977 857617 33323 69% 150 260589 8417 75%
c W 205.36 130 326 63 4979 861072 36151 69% 149 260589 8417 75%
c - 217.22 103 289 64 4981 884803 34385 71% 144 260589 8417 75%
c O 226.51 103 265 64 4990 903073 50318 73% 141 260589 8417 75%
c - 227.31 109 244 65 4995 912416 33876 68% 131 260589 8417 75%
c - 229.67 109 193 66 5008 940451 29170 57% 105 260589 8417 75%
c B 230.22 109 184 66 5010 946074 33374 55% 101 260589 8417 75%
c - 238.39 109 182 67 5012 968911 33384 60% 101 260589 8417 75%
c W 253.14 109 171 67 5013 990075 52340 64% 102 260589 8417 75%
c - 257.47 117 167 68 5013 997798 35754 65% 102 260589 8417 75%
c ] 269.37 117 158 68 5024 1023012 57832 69% 103 260589 8417 75%
c { 269.37 117 25 68 5024 1023012 57832 20% 21 260589 8417 75%
c 
c  seconds    reductions        redundant   irredundant
c           MB     restarts            trail       variables
c            level       conflicts         glue         remaining
c 
c - 269.95 117 25 69 5225 1027110 36098 20% 22 260589 8417 75%
c # 270.40 117 25 69 5279 1035076 40507 20% 22 260589 8417 75%
c - 272.40 117 25 70 5433 1056845 26246 20% 22 260589 8417 75%
c B 273.93 117 25 70 5745 1081077 40414 20% 21 260589 8417 75%
c - 274.43 117 25 71 6014 1087004 24366 20% 22 260589 8417 75%
c - 276.34 117 24 72 6465 1117588 21997 20% 22 260589 8417 75%
c W 281.50 117 24 72 6549 1128081 27683 20% 22 260589 8417 75%
c - 283.15 117 24 73 6753 1148597 23217 20% 22 260589 8417 75%
c s 283.29 117 24 73 6753 1148597 22217 20% 22 260589 8417 75%
c w 283.74 117 24 73 6753 1148597 22213 20% 22 260589 8417 75%
c F 285.99 117 24 73 7317 1176082 36494 21% 22 260589 8417 75%
c - 286.36 117 24 74 7339 1180032 24109 21% 22 260589 8417 75%
c - 288.47 117 24 75 7674 1211891 23899 21% 22 260589 8417 75%
c B 289.22 117 24 75 7866 1225084 30809 21% 22 260589 8417 75%
c - 290.42 117 24 76 8638 1244174 23563 21% 22 260589 8417 75%
c W 298.13 117 24 76 9051 1275085 40414 22% 22 260589 8417 75%
c - 298.37 117 24 77 9066 1276882 24752 22% 22 260589 8417 75%
c - 300.74 117 24 78 9397 1310015 25261 22% 22 260589 8417 75%
c # 301.86 117 24 78 9612 1326086 33439 22% 22 260589 8417 75%
c - 303.09 117 24 79 9745 1343573 25581 22% 22 260589 8417 75%
c 
c  seconds    reductions         redundant   irredundant
c           MB      restarts            trail       variables
c            level        conflicts         glue         remaining
c 
c - 305.53 117 24 80 10068 1377560 24888 22% 22 260589 8417 75%
c B 305.57 117 24 80 10073 1378088 25203 22% 22 260589 8417 75%
c - 307.89 117 23 81 10253 1411970 28142 20% 21 260589 8417 75%
c W 314.27 117 23 81 10270 1431091 39391 19% 20 260589 8417 75%
c - 315.35 117 22 82 10285 1446802 28085 18% 20 260589 8417 75%
c - 317.80 117 22 83 10457 1482059 29361 17% 19 260589 8417 75%
c F 318.01 117 22 83 10462 1485092 31100 17% 19 260589 8417 75%
c - 320.56 117 21 84 10528 1517744 31523 16% 19 260589 8417 75%
c B 322.07 117 21 84 10598 1540096 44851 16% 18 260589 8417 75%
c - 323.81 117 23 85 11275 1553850 33329 17% 19 260589 8417 75%
c - 326.39 117 24 86 12068 1590383 37044 16% 19 260589 8417 75%
c W 332.96 117 24 86 12109 1596097 40908 16% 19 260589 8417 75%
c - 335.62 117 22 87 12305 1627341 31747 16% 18 260589 8417 75%
c # 337.13 117 22 87 12427 1653098 46421 15% 18 260589 8417 75%
c - 337.85 117 21 88 12568 1664724 30090 15% 18 260589 8417 75%
c s 337.92 117 21 88 12568 1664724 25006 15% 18 260589 8417 75%
c w 338.36 117 21 88 12568 1664724 25002 15% 18 260589 8417 75%
c - 340.81 117 21 89 14117 1702530 25482 16% 18 260589 8417 75%
c B 341.33 117 21 89 14445 1711100 29344 17% 18 260589 8417 75%
c - 344.23 117 24 90 18399 1740760 25490 19% 20 260589 8417 75%
c 
c  seconds    reductions         redundant   irredundant
c           MB      restarts            trail       variables
c            level        conflicts         glue         remaining
c 
c W 352.29 117 24 90 20775 1770101 37213 20% 20 260589 8417 75%
c - 353.26 117 25 91 21119 1779417 24007 20% 21 260589 8417 75%
c - 355.66 117 24 92 21702 1818497 27764 20% 21 260589 8417 75%
c F 356.40 117 24 92 21813 1830104 33634 20% 21 260589 8417 75%
c - 358.22 117 24 93 21987 1858002 31569 20% 21 260589 8417 75%
c B 360.94 117 23 93 22382 1891108 49813 20% 20 260589 8417 75%
c - 361.96 117 24 94 23215 1897934 31071 21% 21 260589 8417 75%
c - 364.72 117 25 95 24103 1938288 34509 20% 21 260589 8417 75%
c W 373.11 117 25 95 24435 1953109 41712 20% 21 260589 8417 75%
c - 375.17 117 24 96 24720 1979068 30933 20% 21 260589 8417 75%
c # 377.51 117 24 96 25317 2016111 49899 20% 21 260589 8417 75%
c - 377.87 117 24 97 25349 2020273 30114 20% 21 260589 8417 75%
c } 379.81 117 23 97 25653 2047013 44456 20% 21 260589 8417 75%
c [ 379.81 117 158 97 25653 2047013 44456 69% 103 260589 8417 75%
c - 380.85 117 140 98 25657 2061902 31579 62% 92 260589 8417 75%
c I 382.34 117 122 98 25668 2080114 43666 54% 81 260589 8417 75%
c - 391.10 117 155 99 25673 2103956 44572 59% 98 260589 8417 75%
c B 409.89 117 158 99 25688 2145115 82605 66% 109 260589 8417 75%
c - 410.84 99 157 100 25689 2146436 52512 67% 109 260589 8417 75%
c - 434.10 94 144 101 25704 2189339 52671 71% 107 260589 8417 75%
c 
c  seconds     reductions         redundant    irredundant
c          MB        restarts            trail        variables
c            level         conflicts          glue         remaining
c 
c W 452.04 94 138 101 25705 2211117 70102 73% 105 260589 8417 75%
c - 456.67 95 280 102 25706 2232667 52104 71% 113 260589 8417 75%
c s 456.87 98 280 102 25706 2232667 49501 71% 113 260589 8417 75%
c w 457.44 98 280 102 25706 2232667 49489 71% 113 260589 8417 75%
c - 474.45 101 230 103 25706 2276420 56920 72% 110 260589 8417 75%
c O 475.16 101 229 103 25706 2278118 58467 72% 110 260589 8417 75%
c - 479.39 81 169 104 25707 2320597 49728 60% 87 260589 8417 75%
c B 483.31 81 143 104 25707 2346119 68856 54% 78 260589 8417 75%
c - 490.12 113 378 105 25707 2365200 52923 58% 102 260589 8417 75%
c - 508.80 134 779 106 25707 2410228 58126 65% 141 260589 8417 75%
c W 521.51 134 813 106 25707 2415120 62737 66% 148 260589 8417 75%
c - 535.63 120 593 107 25722 2455680 60422 68% 136 260589 8417 75%
c I 550.23 120 476 107 25736 2485123 86793 71% 129 260589 8417 75%
c - 554.87 120 489 108 25738 2501556 58094 69% 140 260589 8417 75%
c - 571.76 122 387 109 25756 2547858 57637 71% 144 260589 8417 75%
c B 576.18 122 373 109 25760 2556125 65063 71% 145 260589 8417 75%
c - 591.14 121 311 110 25770 2594584 60290 73% 139 260589 8417 75%
c ] 599.92 121 288 110 25770 2611783 76056 73% 138 260589 8417 75%
c ? 599.92 121 288 110 25770 2611783 76056 73% 138 260589 8417 75%
c 
c --- [ result ] -------------------------------------------------------------
c 
c UNKNOWN
c 
c --- [ run-time profiling ] -------------------------------------------------
c 
c process time taken by individual solving procedures
c (percentage relative to process time for solving)
c 
c       574.92   95.86% search
c       402.87   67.18% stable
c        96.61   16.11% unstable
c        75.44   12.58% walk
c        24.81    4.14% simplify
c        11.46    1.91% probe
c         2.94    0.49% vivify
c         2.09    0.35% elim
c         2.02    0.34% ternary
c         1.74    0.29% subsume
c         0.19    0.03% parse
c         0.01    0.00% lucky
c   =================================
c       599.73   99.97% solve
c 
c last line shows process time for solving
c (percentage relative to total process time)
c 
c --- [ statistics ] ---------------------------------------------------------
c 
c chronological:            418422        16.02 %  of conflicts
c conflicts:               2611783      4354.93    per second
c decisions:               3435016      5727.61    per second
c eliminated:                 2208        19.63 %  of all variables
c fixed:                       625         5.56 %  of all variables
c learned:                 2582566        98.88 %  per conflict
c learned_lits:          438027607       100.00 %  learned literals
c minimized:                     0         0.00 %  learned literals
c shrunken:              201529470        46.01 %  learned literals
c minishrunken:           22591868         5.16 %  learned literals
c propagations:          647167296         1.08 M  per second
c reduced:                 1757523        67.29 %  per conflict
c rephased:                     71     36785.68    interval
c restarts:                  25770       101.35    interval
c stabilizing:                   6        47.74 %  of conflicts
c subsumed:                 745973        12.49 %  of all clauses
c strengthened:              36558         0.61 %  of all clauses
c vivified:                    215         0.00 %  of all clauses
c walked:                       22    118717.41    interval
c weakened:                 142475         2.45    average size
c 
c seconds are measured in process time for solving
c 
c --- [ resources ] ----------------------------------------------------------
c 
c total process time since initialization:       599.92    seconds
c total real time since initialization:          600.01    seconds
c maximum resident set size of process:          172.72    MB
c 
c --- [ shutting down ] ------------------------------------------------------
c 
c exit 0
